************************************************************************
file with basedata            : md269_.bas
initial value random generator: 2127263903
************************************************************************
projects                      :  1
jobs (incl. supersource/sink ):  20
horizon                       :  144
RESOURCES
  - renewable                 :  2   R
  - nonrenewable              :  2   N
  - doubly constrained        :  0   D
************************************************************************
PROJECT INFORMATION:
pronr.  #jobs rel.date duedate tardcost  MPM-Time
    1     18      0       15       14       15
************************************************************************
PRECEDENCE RELATIONS:
jobnr.    #modes  #successors   successors
   1        1          3           2   3   4
   2        3          3           5   6   7
   3        3          3           8  12  14
   4        3          3           9  10  18
   5        3          2          11  13
   6        3          3          13  14  15
   7        3          1          11
   8        3          2          13  17
   9        3          2          11  15
  10        3          2          12  17
  11        3          2          12  14
  12        3          1          19
  13        3          1          18
  14        3          2          16  19
  15        3          2          16  19
  16        3          1          17
  17        3          1          20
  18        3          1          20
  19        3          1          20
  20        1          0        
************************************************************************
REQUESTS/DURATIONS:
jobnr. mode duration  R 1  R 2  N 1  N 2
------------------------------------------------------------------------
  1      1     0       0    0    0    0
  2      1     3       5    8    0    8
         2     6       5    8    2    0
         3    10       4    8    0    5
  3      1     5       4    5    0    4
         2     8       3    5    6    0
         3    10       2    5    5    0
  4      1     3       6    7    9    0
         2     7       5    7    0    7
         3     7       5    5    8    0
  5      1     1       6    8    0    7
         2     5       6    8    2    0
         3     6       3    7    0    7
  6      1     1       5    5    0    7
         2     1       5    7    9    0
         3     3       4    5    0    7
  7      1     6       9    5    0   10
         2     7       7    4    3    0
         3    10       5    4    0    9
  8      1     7       6    4    0    9
         2     7       6    5    6    0
         3     8       4    4    0    9
  9      1     2       6    5    0    6
         2     7       4    5    9    0
         3    10       4    4    8    0
 10      1     7      10    2    7    0
         2     8       7    1    6    0
         3    10       6    1    5    0
 11      1     1       4    5    8    0
         2     3       4    4    6    0
         3     9       3    2    1    0
 12      1     1       7    5    8    0
         2     3       5    5    0    3
         3     4       4    4    7    0
 13      1     1       8    7    5    0
         2     1       6    8    7    0
         3     9       3    7    0    4
 14      1     1       6    3    8    0
         2     1       7    3    0    2
         3     7       3    2    8    0
 15      1     1       4    9    0    9
         2     3       3    6    5    0
         3     9       2    3    0    8
 16      1     1       7    7    0    9
         2     7       7    7    0    4
         3     9       5    6    6    0
 17      1     1       8    7    8    0
         2     5       8    5    0    2
         3     6       7    3    6    0
 18      1     2       6    7    0    4
         2     3       5    7    2    0
         3    10       5    5    0    4
 19      1     3       9    8    0    3
         2     4       8    4    0    2
         3     7       7    3    8    0
 20      1     0       0    0    0    0
************************************************************************
RESOURCEAVAILABILITIES:
  R 1  R 2  N 1  N 2
   15   14   60   47
************************************************************************
